
Gurobi 10.0.1 (mac64[arm]) logging started Sun Mar 31 20:19:44 2024

Set parameter LogFile to value "/Users/deniserings/Documents/zib/s-bahn-data/scripts/DeniseMA/processed/BBKS_BWT/RENS/BBKS_BWT_subMBP_random0_0.9_202403312019.log"
Gurobi Optimizer version 10.0.1 build v10.0.1rc0 (mac64[arm])

CPU model: Apple M2
Thread count: 8 physical cores, 8 logical processors, using up to 8 threads

Optimize a model with 10868 rows, 4381 columns and 43162 nonzeros
Model fingerprint: 0xf303830c
Variable types: 1295 continuous, 3086 integer (911 binary)
Coefficient statistics:
  Matrix range     [1e+00, 2e+02]
  Objective range  [1e+00, 4e+02]
  Bounds range     [1e+00, 2e+02]
  RHS range        [1e+00, 5e+02]
Presolve removed 4645 rows and 1500 columns
Presolve time: 0.09s
Presolved: 6223 rows, 2881 columns, 26423 nonzeros
Variable types: 730 continuous, 2151 integer (2151 binary)

Root relaxation: objective 9.096000e+03, 1648 iterations, 0.02 seconds (0.03 work units)

    Nodes    |    Current Node    |     Objective Bounds      |     Work
 Expl Unexpl |  Obj  Depth IntInf | Incumbent    BestBd   Gap | It/Node Time

     0     0 9096.00000    0   82          - 9096.00000      -     -    0s
     0     0 9096.93630    0  227          - 9096.93630      -     -    0s
     0     0 9096.93630    0  229          - 9096.93630      -     -    0s
     0     0 9123.04012    0  281          - 9123.04012      -     -    0s
     0     0 9123.16946    0  276          - 9123.16946      -     -    0s
     0     0 9123.16946    0  292          - 9123.16946      -     -    0s
     0     0 9125.90315    0  317          - 9125.90315      -     -    0s
     0     0 9125.90315    0  258          - 9125.90315      -     -    0s
     0     0 9135.14673    0  301          - 9135.14673      -     -    0s
     0     0 9135.14673    0  245          - 9135.14673      -     -    0s
     0     0 9135.14673    0  312          - 9135.14673      -     -    0s
     0     0 9135.14673    0  308          - 9135.14673      -     -    0s
     0     0 9135.15476    0  214          - 9135.15476      -     -    0s
     0     0 9135.15476    0  249          - 9135.15476      -     -    0s
     0     0 9135.17315    0  288          - 9135.17315      -     -    0s
     0     0 9135.17315    0  293          - 9135.17315      -     -    0s
     0     0 9135.17315    0  288          - 9135.17315      -     -    0s
     0     0 9135.17315    0  147          - 9135.17315      -     -    0s
     0     2 9135.17315    0  147          - 9135.17315      -     -    1s
H 1512  1044                    10674.000000 9180.00000  14.0%  37.8    2s
H 1521   997                    10591.000000 9192.38591  13.2%  37.5    3s
H 1524   949                    10549.000000 9196.50000  12.8%  37.5    3s
H 1524   901                    10253.000000 9196.50000  10.3%  37.5    3s
H 1525   856                    10247.000000 9196.50000  10.3%  37.4    3s
H 1607   876                    10212.000000 9225.30422  9.66%  52.2    4s
H 1961  1011                    10203.000000 9225.30422  9.58%  52.8    4s
  1973  1024 9848.84433   36  122 10203.0000 9225.30422  9.58%  53.0    5s
H 6460  2074                    9935.0000000 9253.48307  6.86%  47.5    9s
H 7067  2100                    9924.0000000 9256.12155  6.73%  47.5    9s
  7614  2635 9324.22297   16  201 9924.00000 9256.22297  6.73%  48.0   10s
H 9292  2972                    9904.0000000 9273.19157  6.37%  49.2   11s
H 9292  2945                    9900.0000000 9273.19157  6.33%  49.2   11s
H 9344  2782                    9871.0000000 9273.19157  6.06%  49.2   11s
 12463  3740 9625.63829   19  239 9871.00000 9297.04001  5.81%  54.4   15s
 16819  4968 9621.74497   21  191 9871.00000 9327.83540  5.50%  57.2   20s
 21120  6053 9520.10341   19  160 9871.00000 9361.19157  5.16%  58.2   25s
 24645  6973 9478.46726   18  204 9871.00000 9413.04979  4.64%  58.4   31s
